 200 96 
 37 82 82 92 28 15 19 82 46 24 25 8 
 44 38 32 42 80 20 30 21 98 55 38 94 
 18 61 18 99 26 12 28 80 95 70 22 99 
 59 62 78 94 49 13 44 35 80 4 14 74 
 11 60 77 54 72 70 13 86 43 45 71 65 
 10 47 48 14 47 69 23 90 89 94 25 93 
 59 41 95 66 35 68 93 18 72 11 22 23 
 51 80 66 8 2 73 33 28 34 82 13 38 
 
 6 
 8 40 63 71 77 91 
 76 
 1 3 4 5 6 7 8 9 10 11 12 13 
 14 15 16 17 18 19 20 21 22 23 24 27 
 28 29 31 34 36 37 38 39 40 42 43 44 
 45 46 48 49 50 51 52 53 54 56 57 59 
 60 61 63 64 67 68 69 72 73 75 76 77 
 79 81 82 83 84 85 86 87 88 89 90 91 
 92 93 94 96 
 81 
 1 2 3 4 6 7 8 9 11 12 13 14 
 15 16 17 18 19 21 22 23 24 25 26 27 
 29 30 31 32 33 36 37 38 39 40 41 42 
 43 44 45 46 47 48 49 50 51 53 54 56 
 57 58 59 60 62 63 64 66 67 68 71 72 
 73 74 75 76 77 81 82 83 84 85 86 87 
 88 89 90 91 92 93 94 95 96 
 14 
 8 14 19 23 28 33 40 46 65 72 81 85 
 91 93 
 5 
 14 20 45 57 96 
 78 
 1 2 3 5 6 7 8 9 10 11 12 14 
 15 16 19 20 21 22 24 25 26 28 29 30 
 31 32 33 35 36 38 39 40 41 42 43 45 
 46 47 48 49 50 51 52 54 55 56 57 59 
 61 62 63 65 66 67 68 70 71 73 74 75 
 76 77 78 79 80 82 83 84 85 86 87 88 
 89 90 92 93 95 96 
 80 
 1 2 3 4 5 6 7 8 9 10 11 13 
 14 17 18 19 20 21 22 23 24 26 27 28 
 30 31 32 33 34 36 37 38 39 40 41 42 
 43 44 45 48 49 50 51 53 54 55 56 57 
 58 59 60 61 62 63 66 67 68 69 70 72 
 74 75 76 77 78 79 81 82 84 86 87 88 
 89 90 91 92 93 94 95 96 
 6 
 3 19 25 31 36 73 
 34 
 4 5 7 9 10 12 15 16 20 22 23 28 
 29 30 31 32 33 45 47 53 57 58 61 64 
 70 71 73 77 78 82 85 90 91 96 
 41 
 1 9 11 13 14 17 18 19 25 27 30 32 
 35 36 39 42 45 47 48 51 52 54 55 56 
 59 61 63 64 67 71 72 73 79 83 84 86 
 88 90 91 93 94 
 49 
 1 3 4 6 9 11 12 14 18 19 22 24 
 30 33 36 39 40 42 44 47 50 51 52 55 
 57 58 59 60 61 62 63 64 66 68 70 71 
 73 75 77 78 82 83 87 90 91 92 93 95 
 96 
 95 
 1 2 3 4 6 7 8 9 10 11 12 13 
 14 15 16 17 18 19 20 21 22 23 24 25 
 26 27 28 29 30 31 32 33 34 35 36 37 
 38 39 40 41 42 43 44 45 46 47 48 49 
 50 51 52 53 54 55 56 57 58 59 60 61 
 62 63 64 65 66 67 68 69 70 71 72 73 
 74 75 76 77 78 79 80 81 82 83 84 85 
 86 87 88 89 90 91 92 93 94 95 96 
 74 
 1 2 3 5 6 7 9 10 11 12 13 14 
 15 16 17 18 20 21 22 23 24 25 26 27 
 29 30 32 33 34 35 36 37 38 39 40 43 
 44 45 47 48 49 50 51 52 53 55 57 58 
 59 60 61 62 63 64 67 69 70 74 75 76 
 79 81 82 83 84 85 86 89 90 92 93 94 
 95 96 
 56 
 3 4 6 8 9 10 11 14 15 17 19 20 
 21 22 23 25 26 27 30 31 33 34 37 39 
 40 41 42 43 44 46 47 50 52 53 58 60 
 61 63 64 68 69 72 73 74 77 78 79 80 
 81 83 85 86 91 92 94 95 
 77 
 1 2 3 4 6 7 8 9 11 12 13 14 
 15 16 17 18 19 20 21 22 23 24 25 26 
 27 28 29 30 32 34 35 36 37 38 39 40 
 41 42 43 45 49 50 51 53 54 55 56 58 
 59 60 62 63 64 65 66 67 69 70 71 72 
 75 76 77 78 79 80 81 82 83 85 86 87 
 88 89 90 92 96 
 60 
 2 5 6 7 9 10 11 12 13 14 15 16 
 17 18 20 22 24 25 28 29 30 31 33 34 
 35 36 37 39 41 42 47 48 49 51 52 55 
 57 58 61 64 65 66 69 70 72 73 75 76 
 77 78 80 81 83 85 90 91 93 94 95 96 
 17 
 6 8 9 17 29 34 37 40 48 55 59 62 
 64 74 76 78 80 
 50 
 2 6 8 9 10 12 14 17 19 20 21 23 
 24 25 28 31 32 35 38 39 42 44 45 46 
 47 48 49 50 52 55 56 57 58 59 61 62 
 65 67 68 69 70 76 77 78 81 82 85 88 
 91 93 
 34 
 4 5 6 8 9 11 13 16 17 23 25 29 
 30 32 39 41 44 45 46 47 50 55 56 66 
 69 72 74 79 80 85 86 87 92 93 
 75 
 1 2 3 4 5 6 7 9 10 11 12 13 
 15 17 21 22 23 25 26 27 30 32 33 34 
 36 37 38 39 40 41 42 43 44 45 46 47 
 48 49 51 53 54 55 56 57 58 60 61 62 
 63 64 65 67 68 69 70 71 72 73 74 75 
 77 78 81 82 84 85 86 88 89 90 91 92 
 93 94 95 
 47 
 5 6 9 12 15 16 19 21 23 27 29 30 
 31 35 36 39 40 41 44 45 46 48 49 50 
 51 53 54 56 57 59 61 64 66 67 68 69 
 72 75 76 77 78 79 82 84 85 86 88 
 83 
 1 2 3 4 5 6 7 8 9 11 12 14 
 15 16 17 18 20 22 23 24 25 27 28 29 
 30 31 32 33 34 35 36 37 38 39 43 44 
 45 46 48 49 50 51 52 53 54 55 56 57 
 58 59 60 61 62 63 64 65 66 67 68 69 
 70 71 72 73 75 76 77 79 80 81 82 83 
 85 86 87 88 89 90 91 93 94 95 96 
 86 
 1 2 3 4 6 7 8 9 10 11 12 13 
 14 15 16 18 19 20 21 22 23 24 25 26 
 27 29 30 31 32 33 34 35 36 37 39 40 
 41 42 43 44 45 46 47 49 51 52 53 54 
 55 56 57 58 60 61 62 63 66 67 68 69 
 70 71 72 73 74 75 76 77 78 80 81 82 
 83 84 85 86 87 88 89 90 91 92 93 94 
 95 96 
 68 
 4 8 11 12 13 15 16 17 18 21 22 23 
 25 26 27 28 29 30 31 33 34 35 36 38 
 39 40 43 44 46 47 48 50 51 52 53 54 
 55 56 57 58 61 62 64 65 67 68 69 70 
 71 72 73 74 76 77 78 79 80 81 82 87 
 88 89 91 92 93 94 95 96 
 43 
 2 3 6 7 9 10 15 16 18 19 23 24 
 25 28 30 31 33 34 37 39 42 45 46 47 
 48 49 51 52 55 56 57 63 64 70 75 76 
 79 80 81 82 89 91 96 
 31 
 3 5 7 8 9 12 21 22 24 30 36 42 
 45 46 47 48 49 54 56 61 63 64 65 72 
 76 77 80 83 85 87 90 
 44 
 1 3 5 6 8 9 10 12 13 16 17 18 
 22 23 25 29 33 36 38 39 41 43 48 49 
 51 53 57 60 61 63 64 67 70 76 79 80 
 83 84 86 90 91 92 94 96 
 10 
 13 17 27 47 66 69 80 85 91 94 
 39 
 6 7 8 12 13 16 17 18 19 20 23 25 
 30 32 33 36 38 39 42 43 46 48 53 55 
 56 57 60 62 64 65 67 71 72 73 81 83 
 87 89 93 
 45 
 1 6 8 9 11 12 15 16 17 20 21 23 
 26 30 32 34 35 36 37 38 39 42 44 45 
 52 53 55 56 57 59 60 66 67 68 72 74 
 76 78 79 80 85 88 91 94 96 
 34 
 2 7 10 13 19 22 23 28 32 33 34 38 
 40 41 45 46 47 49 51 55 58 65 67 68 
 69 72 73 75 76 80 81 85 87 88 
 78 
 1 3 4 5 7 8 9 10 11 12 13 14 
 15 16 17 18 20 21 22 23 24 26 27 29 
 30 31 32 33 34 35 36 37 38 40 41 42 
 43 44 45 46 49 50 51 52 54 55 56 57 
 60 62 63 64 66 67 68 69 70 71 73 75 
 76 77 78 79 80 81 82 83 84 85 86 88 
 90 91 93 94 95 96 
 48 
 1 2 3 7 8 9 11 12 15 16 18 22 
 23 24 28 33 35 37 38 39 40 42 43 45 
 47 51 54 56 57 59 60 63 64 65 66 69 
 73 74 75 77 80 82 83 84 85 88 91 93 
 84 
 1 2 3 4 5 6 7 8 10 11 13 14 
 15 16 17 18 19 21 22 23 24 25 26 27 
 28 29 30 31 32 33 35 36 37 38 39 40 
 41 42 43 44 45 46 47 48 49 51 52 53 
 54 55 56 57 58 59 60 61 62 63 64 66 
 67 69 70 71 72 73 74 75 76 77 78 79 
 80 82 83 85 87 88 89 91 92 94 95 96 
 84 
 1 2 3 4 5 6 7 8 9 10 11 12 
 13 14 15 17 18 19 20 21 22 23 24 25 
 26 27 28 29 30 31 32 34 35 36 37 38 
 39 40 41 42 43 44 45 47 48 49 50 52 
 53 54 55 56 57 58 60 61 63 64 65 66 
 67 68 69 72 73 75 76 77 78 79 80 81 
 82 83 84 85 86 87 88 89 91 92 94 96 
 20 
 1 2 3 5 12 23 24 33 38 42 48 49 
 56 59 60 68 75 77 86 94 
 9 
 1 7 13 15 26 44 57 61 68 
 81 
 1 2 3 4 5 6 8 9 10 13 14 15 
 16 17 18 19 20 21 22 24 25 26 27 28 
 29 30 31 33 34 36 37 38 40 42 43 44 
 45 46 48 49 51 52 53 54 55 56 57 58 
 59 60 62 63 64 65 66 67 68 69 70 71 
 73 74 75 76 77 78 79 80 81 82 83 84 
 86 87 88 89 91 92 94 95 96 
 81 
 1 3 4 5 6 7 8 9 10 11 12 13 
 15 16 17 18 19 20 21 22 24 25 26 28 
 30 31 33 34 35 37 38 40 41 42 43 44 
 47 48 51 53 54 55 56 57 58 61 62 63 
 64 65 66 67 68 69 70 71 72 73 74 75 
 76 77 78 79 80 81 82 83 84 85 86 87 
 88 89 90 91 92 93 94 95 96 
 62 
 1 3 4 6 7 8 10 11 12 13 14 15 
 16 17 19 21 22 23 25 26 27 29 30 31 
 32 33 35 37 39 40 48 49 51 52 54 55 
 56 58 59 60 62 65 66 67 69 70 71 73 
 77 79 80 83 84 85 87 88 89 90 91 94 
 95 96 
 46 
 3 4 5 7 10 11 12 15 18 19 21 22 
 24 25 26 27 28 31 37 39 42 45 47 49 
 50 53 54 55 57 58 64 65 66 71 74 76 
 78 83 84 87 89 90 92 93 94 96 
 65 
 1 3 5 7 8 9 10 11 14 17 18 19 
 20 21 23 25 26 29 30 33 35 36 37 38 
 39 40 41 43 45 46 47 48 49 50 51 52 
 54 55 56 57 58 59 60 61 63 64 66 67 
 69 70 71 72 73 74 77 78 79 81 86 87 
 90 92 93 95 96 
 94 
 1 2 3 4 5 6 7 8 9 11 12 13 
 14 15 16 17 18 19 20 21 22 23 24 25 
 26 27 28 29 30 31 32 33 34 35 36 37 
 38 39 40 41 42 43 44 45 46 47 48 49 
 50 51 52 53 54 55 56 57 58 59 60 61 
 62 63 64 65 66 67 68 69 70 71 72 74 
 75 76 77 78 79 80 81 82 83 84 85 86 
 87 88 89 90 91 92 93 94 95 96 
 77 
 2 3 4 5 6 8 9 10 12 13 14 16 
 19 20 22 23 24 25 26 28 29 30 31 33 
 34 35 36 37 39 40 42 43 44 45 46 47 
 48 49 51 53 54 55 56 59 60 61 62 63 
 64 65 66 67 68 71 72 73 74 75 76 77 
 78 79 80 81 82 83 84 85 86 87 88 89 
 90 91 92 93 96 
 35 
 2 3 6 9 11 12 15 16 19 22 27 29 
 32 33 34 35 48 49 51 53 55 56 58 61 
 66 67 68 69 71 72 77 84 88 91 94 
 24 
 6 8 11 20 21 25 35 37 38 43 47 49 
 50 56 67 74 75 76 80 90 91 92 93 95 
 47 
 3 6 8 9 10 12 15 17 18 20 21 22 
 24 25 28 29 30 34 37 41 43 47 50 53 
 54 55 56 57 58 59 60 64 65 68 71 74 
 75 76 77 82 85 88 90 91 92 93 95 
 57 
 1 3 4 5 6 8 9 10 12 13 15 17 
 18 19 21 22 23 25 27 29 30 31 34 36 
 37 38 42 44 45 48 50 51 56 58 59 61 
 62 64 67 68 69 70 72 73 74 75 76 77 
 79 81 82 83 84 89 90 91 92 
 12 
 3 9 17 18 28 44 46 51 68 69 70 90 
 79 
 1 2 3 4 5 6 7 8 10 12 13 14 
 15 16 17 18 19 20 21 22 23 24 25 26 
 27 28 29 30 31 32 33 35 36 37 38 39 
 42 43 44 46 47 48 49 50 51 52 53 54 
 55 56 58 59 60 61 63 65 66 68 69 70 
 71 72 73 74 75 76 77 79 81 82 83 84 
 85 87 90 91 92 93 94 
 41 
 2 6 8 9 12 13 25 26 28 29 30 31 
 33 36 37 38 39 45 47 49 52 54 55 57 
 58 61 64 65 66 68 70 71 72 73 74 75 
 82 85 88 90 96 
 54 
 4 5 6 8 10 11 14 15 16 18 19 21 
 24 25 27 28 31 36 37 40 43 45 46 48 
 50 51 53 55 56 59 60 62 64 65 66 68 
 69 70 71 73 74 75 78 79 81 85 87 88 
 89 90 93 94 95 96 
 67 
 1 2 3 4 5 6 7 8 11 13 15 16 
 18 19 20 21 24 25 27 28 30 31 32 33 
 34 35 37 38 39 41 42 44 46 47 48 50 
 52 54 55 56 57 59 60 63 65 66 67 69 
 70 71 72 76 77 78 81 82 83 84 85 86 
 87 88 89 90 91 92 94 
 41 
 1 2 3 5 6 9 10 11 14 16 17 18 
 19 20 23 24 27 28 29 36 38 47 51 52 
 54 56 59 60 61 62 68 70 71 76 78 81 
 84 87 91 94 95 
 82 
 1 2 3 4 5 6 7 8 10 11 12 13 
 14 15 17 18 19 20 22 23 24 25 26 27 
 29 31 32 33 36 37 38 39 40 41 42 43 
 45 46 47 48 49 50 51 52 53 55 56 57 
 58 59 61 62 63 64 65 66 67 68 69 70 
 71 72 74 75 76 78 79 80 81 82 84 85 
 86 87 88 89 91 92 93 94 95 96 
 57 
 1 3 4 6 10 11 12 14 20 21 25 26 
 27 28 29 30 32 33 35 41 42 44 45 46 
 48 49 50 51 53 54 57 58 59 61 62 66 
 68 69 70 71 72 74 76 77 79 80 81 82 
 83 86 87 89 90 91 92 95 96 
 54 
 3 4 5 7 8 10 11 12 13 14 15 17 
 18 19 21 22 23 24 26 27 29 30 32 34 
 36 37 44 45 47 51 52 53 54 55 58 59 
 63 67 71 73 74 75 77 80 82 84 86 87 
 88 90 91 92 94 95 
 96 
 1 2 3 4 5 6 7 8 9 10 11 12 
 13 14 15 16 17 18 19 20 21 22 23 24 
 25 26 27 28 29 30 31 32 33 34 35 36 
 37 38 39 40 41 42 43 44 45 46 47 48 
 49 50 51 52 53 54 55 56 57 58 59 60 
 61 62 63 64 65 66 67 68 69 70 71 72 
 73 74 75 76 77 78 79 80 81 82 83 84 
 85 86 87 88 89 90 91 92 93 94 95 96 
 24 
 8 9 10 12 14 16 21 24 46 47 50 54 
 55 56 59 63 67 69 70 72 77 81 83 86 
 44 
 3 4 5 6 10 12 17 22 25 26 29 30 
 32 34 35 37 38 46 47 48 50 54 55 59 
 62 63 66 67 69 70 71 72 77 79 81 82 
 84 86 87 89 92 93 94 95 
 17 
 1 3 4 6 8 9 10 15 31 33 36 38 
 72 78 87 92 94 
 67 
 5 6 8 11 13 14 15 16 17 19 22 23 
 24 25 26 27 28 30 32 34 35 36 37 38 
 39 40 41 42 43 45 46 47 48 49 50 52 
 54 55 57 58 60 63 64 65 66 68 69 70 
 71 73 75 77 78 80 81 82 84 85 87 88 
 89 91 92 93 94 95 96 
 13 
 1 2 3 37 48 67 71 75 80 82 92 93 
 96 
 40 
 2 4 6 13 15 20 22 25 26 28 30 31 
 34 37 38 39 41 49 50 53 54 56 57 58 
 59 61 66 69 70 71 72 73 77 78 82 87 
 91 94 95 96 
 81 
 1 2 4 5 6 7 8 9 10 11 12 14 
 15 16 17 18 19 20 21 22 23 25 27 28 
 30 31 32 33 34 35 37 38 40 41 42 43 
 44 45 47 50 51 52 53 54 56 58 59 60 
 61 62 63 65 66 67 68 69 70 71 72 73 
 74 75 76 77 78 80 81 82 83 84 86 87 
 88 89 90 91 92 93 94 95 96 
 82 
 1 2 3 4 5 6 8 9 10 11 12 13 
 14 15 16 17 18 19 20 22 23 24 25 26 
 30 32 33 34 35 36 37 38 40 41 45 47 
 48 49 51 52 53 54 55 56 57 58 59 60 
 61 62 64 65 66 67 68 69 71 72 73 74 
 75 76 77 78 79 80 81 82 83 84 85 86 
 87 88 89 90 91 92 93 94 95 96 
 38 
 1 5 14 16 18 22 23 25 27 29 32 34 
 35 37 38 39 42 43 45 48 49 51 55 57 
 61 65 66 74 78 79 80 81 82 84 85 89 
 91 93 
 62 
 1 3 5 6 7 8 10 11 12 15 16 17 
 19 20 26 28 30 32 33 34 35 36 37 38 
 41 42 44 45 46 47 49 51 53 55 56 57 
 59 60 61 64 65 66 67 68 69 70 71 74 
 75 76 79 80 83 84 85 86 87 89 90 91 
 92 94 
 15 
 3 6 7 10 15 19 20 23 46 54 57 63 
 67 70 90 
 81 
 1 2 3 4 5 6 7 9 10 11 12 13 
 14 15 16 17 18 19 20 21 22 23 24 25 
 26 29 30 31 32 33 34 35 36 37 39 40 
 41 42 43 44 45 46 48 50 52 53 54 55 
 56 57 59 61 62 63 64 65 66 67 69 70 
 71 72 76 77 78 79 80 81 82 83 85 86 
 87 88 89 90 91 93 94 95 96 
 84 
 1 3 4 5 6 7 8 10 11 12 13 14 
 15 16 17 18 19 20 21 22 23 24 25 26 
 27 28 30 31 32 33 34 35 36 37 38 39 
 40 41 42 43 45 46 48 49 52 53 54 56 
 57 58 59 60 61 62 63 64 65 66 67 68 
 69 70 72 73 74 75 77 78 79 80 81 83 
 84 85 86 87 88 89 90 91 92 93 95 96 
 46 
 1 2 3 5 6 12 13 15 18 19 20 21 
 24 28 32 33 35 37 38 41 43 46 50 52 
 54 55 58 59 60 61 63 66 67 75 76 78 
 81 82 83 85 87 88 89 92 94 95 
 66 
 2 3 6 7 8 11 12 13 15 16 17 18 
 20 21 22 24 25 26 27 30 31 32 33 34 
 35 37 38 40 41 42 43 45 46 47 48 49 
 50 51 52 54 55 57 58 60 61 62 64 65 
 66 67 68 69 70 72 73 75 78 79 81 84 
 86 87 88 91 92 93 
 13 
 6 8 17 26 34 36 56 61 71 76 86 88 
 92 
 24 
 3 5 6 7 20 23 25 28 34 39 54 55 
 57 59 64 65 67 80 83 85 90 91 93 96 
 96 
 1 2 3 4 5 6 7 8 9 10 11 12 
 13 14 15 16 17 18 19 20 21 22 23 24 
 25 26 27 28 29 30 31 32 33 34 35 36 
 37 38 39 40 41 42 43 44 45 46 47 48 
 49 50 51 52 53 54 55 56 57 58 59 60 
 61 62 63 64 65 66 67 68 69 70 71 72 
 73 74 75 76 77 78 79 80 81 82 83 84 
 85 86 87 88 89 90 91 92 93 94 95 96 
 25 
 5 7 12 13 22 25 28 29 31 36 38 39 
 42 53 55 56 60 68 76 80 86 87 91 93 
 94 
 66 
 1 2 4 6 7 10 11 12 13 14 16 17 
 18 20 21 23 25 26 28 29 30 31 32 33 
 34 35 36 37 38 40 42 45 46 47 50 52 
 53 55 56 59 60 61 63 65 66 68 69 70 
 71 73 74 76 77 78 79 83 85 86 88 89 
 90 91 92 93 95 96 
 77 
 1 3 4 5 6 7 8 9 10 11 13 14 
 15 16 17 18 19 20 21 23 24 25 26 28 
 29 30 31 32 33 34 36 37 38 39 40 41 
 42 45 46 47 48 49 51 53 56 57 58 59 
 60 63 65 67 68 70 72 74 75 76 77 78 
 79 80 82 83 84 85 86 87 88 89 90 91 
 92 93 94 95 96 
 26 
 7 10 14 16 25 34 44 46 48 49 60 63 
 65 70 71 75 78 79 82 84 87 88 90 91 
 92 93 
 23 
 3 11 21 23 26 31 34 35 37 40 49 56 
 57 63 65 68 77 78 82 86 90 94 96 
 33 
 1 3 7 9 11 12 13 14 15 16 20 24 
 32 35 37 38 45 47 48 53 56 62 65 66 
 69 71 76 77 78 80 82 87 89 
 81 
 1 2 3 4 5 6 7 8 9 11 12 13 
 14 15 16 17 20 21 22 23 24 25 26 27 
 28 31 32 33 34 35 36 37 38 39 40 42 
 43 44 46 47 48 49 50 51 52 54 55 56 
 57 59 60 61 62 63 64 65 66 67 68 69 
 70 71 72 74 75 76 78 79 80 81 82 83 
 84 87 88 89 92 93 94 95 96 
 73 
 1 2 3 5 6 7 8 10 11 12 13 14 
 15 16 17 18 19 21 22 23 24 25 26 27 
 29 30 31 32 33 34 35 36 38 39 40 41 
 44 45 46 49 50 51 52 53 54 55 56 58 
 59 60 63 66 69 70 71 72 73 74 75 77 
 78 80 81 82 83 84 85 86 88 90 93 94 
 95 
 71 
 2 5 6 8 9 10 11 12 13 14 15 16 
 17 18 19 20 22 23 24 26 28 32 34 35 
 36 37 38 39 40 41 42 43 44 46 47 48 
 49 51 52 53 56 57 58 59 60 63 64 65 
 66 68 69 70 71 73 76 78 80 81 82 83 
 85 86 87 88 89 90 91 93 94 95 96 
 17 
 3 28 40 49 50 53 63 69 70 74 78 81 
 82 87 89 90 91 
 61 
 1 2 3 4 6 7 8 11 12 13 14 15 
 16 17 18 19 20 22 24 25 26 28 29 33 
 35 37 39 40 41 42 43 44 45 48 49 51 
 52 53 54 55 56 57 58 59 61 62 63 64 
 66 67 74 78 79 81 82 85 87 90 91 92 
 94 
 11 
 16 27 34 35 38 43 47 75 89 90 92 
 58 
 2 3 5 6 8 9 12 14 18 19 22 25 
 26 28 29 30 32 34 35 37 38 41 42 43 
 44 45 46 48 49 52 55 56 57 58 59 62 
 64 65 66 68 70 76 77 78 79 80 81 82 
 83 84 87 88 90 92 93 94 95 96 
 30 
 6 8 9 13 14 17 20 22 30 35 40 41 
 45 47 49 51 52 59 61 64 68 73 77 78 
 79 81 84 86 91 94 
 39 
 5 13 15 17 18 23 24 25 28 30 31 33 
 35 36 40 42 43 44 45 48 54 55 58 59 
 60 61 64 66 69 75 78 80 83 84 87 90 
 91 93 95 
 71 
 1 2 3 4 5 7 8 9 11 12 13 14 
 16 17 19 20 22 23 24 25 26 27 28 29 
 30 31 32 33 34 35 36 38 39 40 41 43 
 44 45 49 51 52 53 56 57 58 59 61 62 
 63 64 65 66 67 68 69 70 71 72 75 76 
 79 81 82 86 87 88 89 90 91 95 96 
 54 
 2 4 6 8 9 10 11 12 13 17 18 23 
 24 25 26 27 31 33 34 36 37 38 40 41 
 43 45 47 49 51 54 55 56 57 60 61 62 
 63 64 68 71 72 75 76 77 80 81 84 85 
 87 89 90 93 95 96 
 2 
 24 60 
 93 
 1 2 3 4 5 6 7 8 9 10 11 12 
 13 14 15 16 17 18 19 20 21 22 23 24 
 25 26 27 28 29 30 31 32 34 35 36 37 
 38 39 40 41 42 43 44 45 47 48 49 50 
 51 52 53 54 55 56 57 58 59 60 61 62 
 63 64 65 66 67 68 69 70 71 72 73 74 
 75 76 77 78 79 80 81 82 84 85 86 87 
 88 89 90 91 92 93 94 95 96 
 55 
 1 5 6 10 11 12 13 14 15 16 18 19 
 21 22 26 27 28 29 30 31 32 36 37 38 
 39 40 41 42 43 46 48 49 53 55 58 59 
 62 65 66 69 72 73 74 77 78 79 80 81 
 82 85 91 92 93 94 95 
 27 
 1 5 9 10 22 26 27 33 34 35 38 40 
 41 48 53 56 62 63 67 68 73 78 82 86 
 88 91 95 
 83 
 1 3 4 5 6 7 8 9 10 11 12 13 
 14 15 16 17 18 19 21 23 24 25 26 27 
 28 29 30 31 32 33 34 35 36 37 38 39 
 42 43 44 45 48 49 50 51 52 53 56 57 
 58 59 60 61 63 64 65 66 67 68 69 70 
 71 72 73 74 75 76 77 79 80 81 82 83 
 84 86 87 89 90 91 92 93 94 95 96 
 39 
 7 8 10 12 15 17 18 19 20 22 23 24 
 25 29 32 33 35 36 37 39 40 43 50 55 
 57 58 59 63 64 66 68 71 77 78 86 88 
 93 94 95 
 12 
 12 14 15 17 21 26 37 39 65 67 70 96 
 55 
 1 2 3 5 6 8 9 12 15 16 18 24 
 26 28 29 30 31 32 33 34 35 36 37 38 
 39 41 45 48 51 55 56 57 58 60 62 64 
 66 68 69 71 72 73 74 75 76 78 79 81 
 85 88 89 91 94 95 96 
 42 
 5 8 10 19 20 23 25 26 27 29 30 33 
 38 39 41 43 44 46 47 50 51 54 55 57 
 60 63 65 66 67 69 73 74 78 83 84 85 
 86 87 90 92 94 95 
 65 
 1 3 4 7 8 9 10 14 16 17 18 19 
 21 22 24 25 28 29 30 31 32 33 34 35 
 36 38 39 41 43 44 46 47 48 51 52 53 
 54 56 58 59 62 65 66 67 68 69 70 71 
 75 76 77 78 79 80 83 85 86 87 89 90 
 91 92 93 95 96 
 25 
 10 11 13 21 22 25 30 35 37 44 46 48 
 49 51 52 64 65 67 68 69 71 79 86 94 
 95 
 14 
 2 5 14 15 17 23 24 30 36 41 59 64 
 68 79 
 81 
 1 2 3 4 5 6 8 9 10 11 12 13 
 14 15 16 17 19 20 21 22 23 24 25 26 
 27 28 31 32 33 34 37 38 40 41 42 43 
 44 45 46 47 48 49 50 51 54 55 56 57 
 58 59 60 61 62 63 64 65 66 67 68 69 
 70 71 74 75 76 78 80 81 82 84 85 86 
 87 88 89 90 91 92 93 94 95 
 34 
 3 5 7 8 9 10 11 12 13 15 23 26 
 36 38 41 44 46 52 55 57 58 64 65 66 
 69 74 76 78 80 81 87 88 92 93 
 72 
 1 3 4 5 6 9 11 12 13 15 16 17 
 18 20 21 22 23 24 25 26 27 28 29 30 
 31 32 34 36 38 39 41 42 46 47 50 51 
 52 53 55 56 57 58 60 61 62 63 64 65 
 66 67 69 70 71 73 75 76 77 78 79 80 
 81 84 85 86 88 89 90 92 93 94 95 96 
 73 
 1 2 3 4 5 6 7 8 9 11 13 16 
 17 18 19 20 21 22 24 25 26 27 28 29 
 30 32 34 37 38 39 40 41 42 43 44 45 
 46 47 48 50 52 53 54 55 58 60 61 63 
 64 65 66 67 68 69 70 72 73 74 77 78 
 79 81 82 83 84 86 87 89 90 91 94 95 
 96 
 72 
 1 2 3 4 7 8 9 11 13 16 17 18 
 19 20 21 22 23 24 25 27 28 29 31 32 
 34 36 38 40 41 42 43 45 48 49 51 52 
 54 55 56 58 60 62 63 65 66 67 68 69 
 70 71 73 74 75 76 77 78 79 80 81 82 
 83 85 86 87 88 89 91 92 93 94 95 96 
 55 
 1 3 4 6 7 8 9 10 11 13 16 19 
 20 22 25 26 28 31 33 34 35 37 38 39 
 45 46 49 51 52 54 55 56 58 59 61 65 
 67 69 71 72 73 74 76 79 80 81 84 86 
 88 89 90 92 93 94 95 
 51 
 1 3 7 11 12 14 19 20 21 23 30 32 
 33 36 37 39 40 43 44 45 47 49 50 52 
 54 56 57 58 60 63 64 65 66 67 68 70 
 72 74 75 76 80 84 85 86 87 88 89 92 
 94 95 96 
 40 
 5 6 8 9 10 11 12 14 16 19 21 24 
 25 27 28 32 33 35 36 37 38 42 43 51 
 55 60 61 64 65 66 70 71 72 74 77 88 
 89 90 91 96 
 77 
 1 2 3 4 5 8 9 10 11 12 13 15 
 16 18 19 20 23 24 25 26 27 28 30 31 
 32 35 36 38 39 41 42 43 44 46 47 48 
 49 50 52 53 54 55 56 57 58 59 60 61 
 62 63 64 67 68 69 70 71 72 74 75 76 
 77 78 80 81 82 83 86 87 88 89 90 91 
 92 93 94 95 96 
 2 
 12 59 
 30 
 1 9 10 15 16 18 22 24 26 29 31 38 
 40 49 50 57 60 62 68 70 73 76 82 84 
 88 89 92 93 94 96 
 34 
 1 5 9 10 13 16 17 20 21 30 31 33 
 40 42 49 55 56 59 63 65 67 70 71 74 
 75 77 78 79 83 84 89 90 91 96 
 80 
 1 2 3 5 6 7 8 9 10 11 12 13 
 14 15 19 20 22 23 24 25 26 27 28 29 
 30 31 33 35 36 38 39 40 41 43 45 46 
 47 48 49 50 52 54 55 56 57 58 59 60 
 61 62 64 65 66 67 68 69 70 71 72 73 
 74 75 76 77 78 79 80 81 82 83 84 85 
 86 87 88 89 91 94 95 96 
 5 
 1 19 22 36 43 
 36 
 2 6 7 8 9 10 13 16 21 22 23 24 
 26 27 28 31 33 34 37 38 42 46 47 48 
 49 50 51 54 58 59 66 80 87 91 92 93 
 66 
 1 2 4 5 6 7 8 10 11 13 14 15 
 17 18 19 20 21 22 25 26 27 28 31 32 
 33 35 37 38 39 40 42 43 49 50 51 52 
 53 56 57 58 59 60 62 63 65 68 70 71 
 72 74 75 76 77 78 79 81 82 83 84 85 
 87 88 92 93 95 96 
 10 
 17 22 28 31 52 67 70 76 85 96 
 2 
 17 78 
 31 
 3 11 13 14 21 23 28 31 38 46 47 51 
 52 53 54 55 57 59 60 66 67 69 73 77 
 78 82 83 86 89 91 92 
 52 
 6 7 9 10 12 16 17 20 21 22 23 24 
 26 27 28 29 33 34 37 39 40 41 46 48 
 50 52 53 54 55 58 59 60 61 63 64 65 
 68 70 72 74 75 76 77 78 79 80 81 86 
 87 88 90 95 
 16 
 5 6 9 14 17 27 40 49 56 74 76 86 
 87 89 91 96 
 77 
 1 2 3 5 6 8 9 11 12 13 14 16 
 17 18 19 20 21 22 23 24 25 26 27 28 
 29 31 32 33 36 37 38 40 41 42 44 45 
 46 48 49 51 52 53 54 57 58 59 60 61 
 62 63 64 65 66 67 68 69 70 73 75 78 
 79 80 81 82 83 84 86 87 88 89 90 91 
 92 93 94 95 96 
 89 
 1 2 3 4 5 6 7 9 10 12 13 14 
 15 16 17 19 20 21 22 23 24 25 26 27 
 28 29 30 31 32 33 34 35 36 37 38 39 
 40 41 42 43 44 45 46 47 48 49 50 51 
 52 53 54 55 56 57 58 59 60 62 63 64 
 65 67 68 69 70 71 72 73 74 75 76 77 
 78 79 80 81 82 83 84 85 86 87 89 90 
 91 93 94 95 96 
 16 
 8 10 16 26 28 34 50 54 71 72 76 77 
 78 80 82 94 
 34 
 4 10 14 21 24 25 28 30 31 32 34 36 
 37 38 39 43 45 50 57 59 60 62 64 65 
 69 76 83 85 87 88 89 93 94 95 
 53 
 2 3 4 5 10 11 13 17 18 21 23 24 
 25 26 27 28 31 32 34 35 38 40 41 43 
 45 47 48 49 50 51 53 54 55 60 62 63 
 64 66 70 71 72 73 76 77 79 83 84 88 
 90 91 92 95 96 
 8 
 6 7 13 15 18 37 55 63 
 60 
 1 2 3 4 7 8 9 11 13 14 15 17 
 18 20 23 26 28 29 31 32 33 35 36 37 
 38 40 41 42 43 45 46 48 51 52 56 59 
 60 61 63 64 65 66 67 69 71 72 73 74 
 75 76 77 82 84 86 87 88 89 90 92 94 
 16 
 10 14 15 30 32 36 44 45 48 59 65 69 
 70 73 79 96 
 37 
 5 10 14 18 19 24 29 30 34 36 37 42 
 46 48 52 53 55 56 61 63 66 67 68 69 
 70 71 73 74 75 78 79 83 86 90 93 95 
 96 
 9 
 2 9 20 31 49 54 66 69 86 
 41 
 5 6 9 11 12 14 17 18 21 22 25 27 
 33 35 36 38 40 41 42 43 45 46 51 53 
 54 55 59 63 65 67 72 73 74 76 79 82 
 87 89 91 94 95 
 41 
 1 4 5 6 7 11 12 15 17 21 25 28 
 37 41 42 44 45 46 47 48 50 51 55 56 
 60 64 65 69 70 71 72 77 78 79 80 85 
 86 88 94 95 96 
 6 
 6 11 37 43 65 81 
 84 
 1 2 3 5 6 7 8 9 10 11 12 13 
 14 15 16 17 18 19 20 21 22 24 25 26 
 27 28 29 30 31 33 34 36 37 38 39 40 
 41 42 44 45 47 48 50 51 52 53 54 55 
 56 57 58 59 60 61 63 64 65 66 67 68 
 69 70 71 73 74 75 76 77 78 79 80 82 
 85 86 87 88 89 90 91 92 93 94 95 96 
 33 
 1 3 6 7 8 10 14 16 17 18 19 22 
 24 29 33 36 38 44 45 51 56 64 67 68 
 72 74 75 78 80 81 82 84 86 
 43 
 2 3 9 10 11 12 14 16 24 31 35 37 
 38 39 42 45 46 50 53 54 56 60 61 64 
 66 69 70 71 75 76 79 80 81 82 83 84 
 85 87 90 91 92 94 95 
 40 
 2 3 4 9 12 13 15 18 20 26 28 30 
 34 35 36 39 41 44 45 47 49 50 52 54 
 55 58 59 65 69 70 71 76 77 78 80 83 
 84 87 88 89 
 16 
 5 9 12 26 29 45 49 51 53 56 58 65 
 72 84 91 93 
 93 
 1 2 3 4 5 6 7 8 9 10 11 12 
 13 14 15 16 17 18 19 20 21 22 23 24 
 25 26 27 28 29 30 31 32 33 34 35 36 
 37 38 39 40 41 42 43 44 45 46 47 48 
 49 50 51 52 53 54 55 56 57 58 59 60 
 61 62 63 64 65 66 67 68 69 70 71 72 
 73 74 75 76 77 78 79 80 81 82 83 84 
 85 86 88 89 90 92 93 94 96 
 13 
 5 11 20 24 26 46 56 64 71 75 85 94 
 95 
 2 
 34 58 
 58 
 1 4 5 10 11 12 13 14 16 17 19 20 
 24 25 26 33 35 39 40 41 44 45 46 47 
 48 50 52 54 56 57 61 62 63 65 67 68 
 69 70 71 73 74 75 76 77 78 79 80 82 
 83 84 85 86 89 90 91 92 93 94 
 17 
 3 7 12 14 18 25 34 37 38 47 51 53 
 71 77 82 87 95 
 19 
 1 8 37 44 45 47 50 59 64 67 69 74 
 75 77 82 84 89 91 92 
 10 
 8 14 30 46 64 67 75 78 85 86 
 85 
 1 2 3 4 6 7 8 9 10 11 12 13 
 14 15 16 17 18 19 20 21 22 23 24 25 
 26 28 29 30 31 32 33 34 36 37 38 39 
 41 42 43 44 46 47 49 50 51 52 53 54 
 55 56 57 58 59 60 61 62 63 64 65 66 
 67 68 69 70 71 72 74 76 77 78 79 80 
 81 82 83 85 86 87 88 90 91 92 93 94 
 96 
 38 
 1 2 4 5 6 9 10 11 15 22 25 27 
 33 38 39 43 56 58 60 65 66 67 68 69 
 70 71 73 75 76 79 81 82 83 90 91 94 
 95 96 
 87 
 1 2 3 4 5 6 7 8 9 10 11 12 
 13 14 15 17 18 19 20 21 22 23 25 27 
 28 29 30 31 32 34 35 36 37 38 39 40 
 41 42 43 44 45 46 48 49 51 52 54 55 
 56 57 58 59 60 61 62 63 64 65 66 67 
 68 69 70 71 72 74 75 76 77 78 79 80 
 81 82 83 84 85 87 88 89 90 91 92 93 
 94 95 96 
 39 
 1 3 5 6 7 8 10 12 16 19 21 23 
 24 25 35 36 38 40 41 44 47 49 50 57 
 60 63 65 66 68 69 71 72 73 82 83 86 
 87 88 90 
 65 
 1 3 4 6 7 8 9 10 13 14 15 19 
 20 21 23 24 26 27 28 29 30 31 32 33 
 34 35 37 38 39 40 42 43 46 47 48 50 
 54 55 56 57 58 59 61 62 65 66 67 72 
 74 75 76 77 79 80 81 85 86 87 88 89 
 90 91 94 95 96 
 81 
 1 2 3 4 5 6 7 8 10 12 13 15 
 16 17 19 21 22 23 24 25 26 27 28 29 
 30 32 33 34 35 37 38 39 40 41 42 43 
 44 45 48 50 51 52 53 54 55 56 57 58 
 59 60 61 63 64 66 67 68 69 72 73 74 
 75 76 77 78 79 80 81 82 83 84 85 86 
 87 88 89 90 92 93 94 95 96 
 72 
 2 3 4 5 10 11 12 13 14 15 16 17 
 18 19 20 22 23 26 28 30 31 32 33 34 
 35 37 40 41 42 44 46 47 49 50 51 52 
 53 54 55 56 57 58 59 60 62 63 64 66 
 67 68 69 70 71 74 76 77 78 79 80 82 
 83 84 85 86 87 88 89 91 92 93 95 96 
 25 
 4 11 20 22 25 33 42 44 45 47 48 51 
 56 57 58 62 63 65 70 75 77 84 87 92 
 95 
 86 
 1 2 3 4 5 6 10 11 12 13 14 15 
 16 17 18 19 20 21 22 23 24 25 26 28 
 29 31 32 33 34 36 37 38 39 40 41 42 
 43 44 45 46 47 48 49 50 51 52 53 55 
 56 57 58 59 60 61 62 63 64 65 66 67 
 68 69 70 71 72 73 74 75 76 77 78 79 
 81 82 83 84 85 86 87 88 89 90 92 94 
 95 96 
 33 
 1 2 7 10 11 14 18 19 20 23 26 27 
 28 29 34 38 41 43 46 47 50 54 56 62 
 63 65 68 74 78 79 84 85 90 
 51 
 1 3 6 8 11 12 13 15 17 19 22 23 
 24 27 29 31 32 34 35 36 39 40 41 43 
 44 46 47 49 50 53 56 57 59 60 61 62 
 64 65 69 70 73 81 82 84 85 86 89 90 
 91 95 96 
 96 
 1 2 3 4 5 6 7 8 9 10 11 12 
 13 14 15 16 17 18 19 20 21 22 23 24 
 25 26 27 28 29 30 31 32 33 34 35 36 
 37 38 39 40 41 42 43 44 45 46 47 48 
 49 50 51 52 53 54 55 56 57 58 59 60 
 61 62 63 64 65 66 67 68 69 70 71 72 
 73 74 75 76 77 78 79 80 81 82 83 84 
 85 86 87 88 89 90 91 92 93 94 95 96 
 21 
 2 3 5 18 27 28 29 32 34 37 40 43 
 45 51 54 56 64 75 78 85 91 
 3 
 14 68 72 
 72 
 1 2 5 6 7 8 9 10 11 13 14 15 
 16 19 20 21 22 23 25 27 30 31 32 33 
 35 37 38 40 41 42 43 45 46 48 49 52 
 54 56 57 58 59 60 61 62 63 64 65 66 
 67 68 69 70 71 72 73 74 77 79 80 81 
 82 83 85 87 88 89 90 92 93 94 95 96 
 17 
 2 3 4 14 31 34 36 43 44 47 56 75 
 76 78 81 82 89 
 12 
 6 10 19 31 32 49 61 62 79 81 86 94 
 83 
 1 2 4 6 8 10 11 12 13 15 16 17 
 18 19 20 21 22 23 24 25 26 28 29 31 
 32 33 35 36 37 38 39 40 41 42 43 44 
 46 48 49 50 51 52 53 54 55 56 57 58 
 59 60 61 62 63 64 65 66 67 68 69 71 
 73 74 75 76 77 78 79 80 81 82 83 84 
 85 86 87 88 90 91 92 93 94 95 96 
 52 
 1 3 4 5 11 12 15 16 17 18 20 21 
 22 23 25 26 27 28 29 30 33 36 37 38 
 40 41 44 45 46 50 51 53 55 56 60 61 
 62 65 68 69 72 73 74 76 78 79 81 82 
 92 93 95 96 
 38 
 1 5 7 8 10 13 17 18 19 22 25 26 
 27 30 31 33 35 37 38 40 43 44 47 50 
 51 54 59 64 66 67 70 72 74 77 80 88 
 91 92 
 86 
 1 2 3 4 5 6 7 8 9 10 11 12 
 13 14 16 17 18 19 20 21 22 24 25 26 
 27 29 30 33 34 35 36 37 38 39 40 41 
 43 44 45 46 47 48 49 50 51 52 53 54 
 55 56 59 60 61 62 63 64 65 66 67 68 
 69 70 71 72 73 74 75 77 78 79 80 81 
 82 83 84 85 86 87 88 89 90 92 93 94 
 95 96 
 42 
 3 7 9 10 14 15 16 19 20 21 23 24 
 26 29 32 35 39 42 43 44 46 47 50 53 
 54 56 60 62 64 67 68 71 77 81 85 86 
 87 90 91 92 94 95 
 5 
 18 56 69 79 83 
 54 
 1 2 3 4 5 6 8 9 12 13 14 16 
 17 18 19 22 23 25 27 30 33 34 35 44 
 45 46 47 48 50 52 53 54 55 56 57 58 
 59 60 61 62 63 67 68 69 74 79 81 82 
 85 87 90 93 94 96 
 30 
 4 9 13 15 23 25 27 29 33 38 39 40 
 43 44 45 48 49 51 53 55 57 60 63 64 
 67 71 77 90 93 95 
 10 
 24 33 38 41 51 64 66 75 80 93 
 68 
 1 2 3 5 6 7 8 9 13 15 16 17 
 18 19 20 21 22 23 25 26 27 28 30 31 
 32 33 36 37 39 40 41 42 43 44 45 47 
 49 50 51 52 53 54 58 59 60 63 65 66 
 67 71 73 75 76 78 80 81 83 84 85 86 
 88 89 90 91 92 93 95 96 
 89 
 1 2 3 4 5 6 7 8 9 10 11 12 
 13 14 15 16 17 18 19 20 21 22 23 24 
 25 26 27 28 29 30 31 32 33 34 35 36 
 37 38 39 41 42 43 44 45 46 47 48 49 
 50 52 53 54 55 56 57 58 59 61 62 63 
 64 65 66 67 68 69 70 71 72 73 74 75 
 76 77 78 79 81 82 83 85 86 87 88 89 
 90 91 92 95 96 
 9 
 3 5 56 70 81 84 90 91 92 
 39 
 1 2 7 10 11 12 18 20 27 29 30 33 
 36 37 38 39 43 45 47 54 56 57 58 59 
 62 66 67 68 70 71 72 73 74 77 81 87 
 89 90 91 
 94 
 1 2 3 4 5 6 7 8 9 10 11 12 
 13 14 15 16 17 18 19 20 21 22 23 24 
 25 27 28 29 30 31 32 33 34 35 36 37 
 38 39 40 41 42 43 44 45 46 47 48 49 
 50 51 52 53 54 55 56 57 58 59 60 61 
 62 63 64 65 66 67 68 69 70 71 72 73 
 74 75 76 77 78 79 81 82 83 84 85 86 
 87 88 89 90 91 92 93 94 95 96 
 6 
 3 6 31 67 72 74 
 3 
 1 69 85 
 71 
 1 2 4 5 6 7 8 10 14 16 17 18 
 19 20 21 25 26 27 29 30 31 32 33 34 
 35 36 37 38 39 40 42 43 44 46 47 48 
 50 51 52 55 56 57 59 62 63 64 65 67 
 68 69 70 71 72 74 75 76 78 79 80 81 
 83 84 85 86 87 88 89 91 92 95 96 
 68 
 2 3 4 5 6 7 8 10 11 12 14 15 
 17 18 23 24 26 27 29 30 31 32 33 35 
 37 38 39 40 43 44 45 46 47 48 49 50 
 51 53 56 58 60 62 63 64 66 67 69 71 
 72 74 75 76 77 78 79 80 83 84 85 86 
 87 88 89 91 93 94 95 96 
 90 
 1 2 3 5 6 7 8 9 10 11 12 13 
 14 15 16 17 18 19 20 21 22 23 24 25 
 26 27 28 30 31 32 33 34 35 36 37 38 
 39 40 41 42 43 44 45 46 47 48 49 50 
 51 52 53 54 55 56 57 58 59 60 61 62 
 63 64 65 66 68 69 70 73 74 75 76 77 
 78 79 80 81 82 83 84 85 86 87 88 89 
 90 91 93 94 95 96 
 54 
 1 3 5 7 10 11 13 15 16 17 18 20 
 21 22 23 26 27 29 34 35 37 38 41 43 
 44 46 47 48 49 51 52 53 54 59 63 66 
 67 68 69 72 74 76 78 79 80 81 83 84 
 85 88 90 93 94 96 
 64 
 1 3 4 7 8 9 11 14 16 17 18 19 
 20 21 22 25 27 28 29 31 32 33 34 36 
 37 40 42 46 48 49 50 52 53 54 57 58 
 59 60 62 63 64 67 69 70 71 72 73 75 
 76 77 79 80 81 83 84 85 86 87 89 91 
 92 93 95 96 
 96 
 1 2 3 4 5 6 7 8 9 10 11 12 
 13 14 15 16 17 18 19 20 21 22 23 24 
 25 26 27 28 29 30 31 32 33 34 35 36 
 37 38 39 40 41 42 43 44 45 46 47 48 
 49 50 51 52 53 54 55 56 57 58 59 60 
 61 62 63 64 65 66 67 68 69 70 71 72 
 73 74 75 76 77 78 79 80 81 82 83 84 
 85 86 87 88 89 90 91 92 93 94 95 96 
 71 
 1 2 3 4 5 6 10 11 12 13 14 15 
 16 17 18 20 21 23 24 25 26 27 28 29 
 30 31 34 36 37 40 42 43 45 46 47 48 
 49 55 56 57 58 59 60 61 62 64 66 67 
 70 71 72 73 74 75 76 77 78 79 83 84 
 85 86 87 88 89 90 91 92 93 94 96 
 9 
 10 12 29 30 36 70 88 91 95 
 66 
 1 2 3 4 5 8 9 10 11 12 13 14 
 16 17 18 19 20 21 22 23 24 25 27 28 
 29 33 34 37 38 40 41 42 43 48 51 53 
 54 56 57 58 59 60 61 62 64 65 66 69 
 71 72 74 75 76 77 78 81 82 84 85 86 
 87 88 89 90 95 96 
 89 
 1 2 3 4 5 7 8 9 10 11 12 13 
 14 15 16 17 18 19 20 21 22 23 24 25 
 26 27 28 29 30 31 32 33 34 35 36 37 
 38 39 40 41 42 45 46 47 48 49 50 51 
 52 53 54 55 56 57 58 59 60 61 63 64 
 65 66 67 69 70 71 72 73 74 75 76 77 
 78 79 80 81 83 84 85 86 87 89 90 91 
 92 93 94 95 96 
 2 
 36 67 
 50 
 5 6 7 11 15 17 20 22 23 25 26 28 
 30 31 32 33 34 35 37 38 39 42 43 45 
 49 52 53 54 56 57 58 62 66 67 68 70 
 72 74 77 78 79 82 84 86 87 88 89 91 
 95 96 
 94 
 1 2 3 4 5 6 7 8 9 10 11 12 
 13 14 15 16 17 18 19 20 21 22 23 24 
 26 27 28 29 30 31 32 33 34 35 36 37 
 38 39 40 41 42 43 44 45 46 47 48 49 
 50 51 52 53 54 55 56 57 58 59 60 61 
 62 63 64 65 66 67 68 69 70 71 73 74 
 75 76 77 78 79 80 81 82 83 84 85 86 
 87 88 89 90 91 92 93 94 95 96 
 13 
 1 29 34 44 55 56 59 60 62 73 82 83 
 90 
 40 
 1 6 7 9 12 13 15 23 26 27 28 29 
 30 32 33 36 38 40 45 50 52 53 59 60 
 62 63 65 68 69 75 76 77 78 81 82 89 
 91 93 95 96 
 54 
 1 3 4 5 7 9 10 12 14 15 18 19 
 20 24 26 29 30 32 34 37 38 40 42 43 
 44 45 49 52 53 54 57 58 59 60 61 63 
 66 68 72 75 79 80 81 82 83 84 86 87 
 88 89 92 93 94 96 
 